OutputFormat = OVF2_BINARY

// Mesh
SetGridSize(20, 10, 4)
SetCellSize(5e-09, 5e-09, 5e-09)

// Magnetisation
m.LoadFile("C:/Users/samjr_ym2i32/repos/ubermag-devtools/repos/micromagneticdata/micromagneticdata/tests/test_sample/rectangle/drive-4/m0.omf")
Msat.setregion(0, 799999.9999999999)

regions.LoadFile("C:/Users/samjr_ym2i32/repos/ubermag-devtools/repos/micromagneticdata/micromagneticdata/tests/test_sample/rectangle/drive-4/mumax3_regions.omf")

// Exchange energy
Aex = 1.3e-11
tableadd(E_exch)
// Zeeman
B_ext.add(LoadFile("C:/Users/samjr_ym2i32/repos/ubermag-devtools/repos/micromagneticdata/micromagneticdata/tests/test_sample/rectangle/drive-4/B_ext.ovf"), 1)
tableadd(E_Zeeman)
enabledemag = false

tableadd(E_total)
tableadd(dt)
tableadd(maxtorque)
minimize()

save(m_full)
tablesave()

