// Mesh
SetGridSize(20, 20, 1)
SetCellSize(5e-09, 5e-09, 5e-09)

// Magnetisation
m.LoadFile("m0.omf")
Msat.setregion(0, 800000.0000000002)

regions.LoadFile("mumax3_regions.omf")

// Exchange energy
Aex = 1.3e-11
tableadd(E_exch)
// Demag
enabledemag = true
tableadd(E_demag)
// Zeeman
B_ext = vector(0.012566370614359173, 0.0, 0.0)
tableadd(E_Zeeman)
tableadd(E_total)
tableadd(dt)
tableadd(maxtorque)
minimize()

save(m_full)
tablesave()

