OutputFormat = OVF2_BINARY

// Mesh
SetGridSize(20, 10, 4)
SetCellSize(5e-09, 5e-09, 5e-09)

// Magnetisation
m.LoadFile("C:/Users/samjr_ym2i32/repos/ubermag-devtools/repos/micromagneticdata/micromagneticdata/tests/test_sample/rectangle/drive-2/m0.omf")
Msat.setregion(0, 800000.0)

regions.LoadFile("C:/Users/samjr_ym2i32/repos/ubermag-devtools/repos/micromagneticdata/micromagneticdata/tests/test_sample/rectangle/drive-2/mumax3_regions.omf")

// Exchange energy
Aex = 1.3e-11
tableadd(E_exch)
// Zeeman
B_ext.add(LoadFile("C:/Users/samjr_ym2i32/repos/ubermag-devtools/repos/micromagneticdata/micromagneticdata/tests/test_sample/rectangle/drive-2/B_ext.ovf"), 1)
tableadd(E_Zeeman)
enabledemag = false

tableadd(E_total)
tableadd(dt)
tableadd(maxtorque)
alpha = 0.02
gammaLL = 176085964286.56906
doprecess = true
setsolver(5)
fixDt = 0

for snap_counter:=0; snap_counter<250; snap_counter++{
    run(2e-12)
    save(m_full)
    tablesave()
}