OutputFormat = OVF2_BINARY

// Mesh
SetGridSize(20, 10, 4)
SetCellSize(5e-09, 5e-09, 5e-09)

// Magnetisation
m.LoadFile("/home/mlang/ubermag-devtools/repos/micromagneticdata/micromagneticdata/tests/test_sample/system_name/drive-3/m0.omf")
Msat.setregion(0, 799999.9999999997)

regions.LoadFile("/home/mlang/ubermag-devtools/repos/micromagneticdata/micromagneticdata/tests/test_sample/system_name/drive-3/mumax3_regions.omf")

// Exchange energy
Aex = 1.3e-11
tableadd(E_exch)
// Zeeman
B_ext.add(LoadFile("/home/mlang/ubermag-devtools/repos/micromagneticdata/micromagneticdata/tests/test_sample/system_name/drive-3/B_ext.ovf"), 1)
tableadd(E_Zeeman)
enabledemag = false

tableadd(E_total)
tableadd(dt)
tableadd(maxtorque)
alpha = 0.02
relax()

save(m_full)
tablesave()

